8
0 3262 1512 2086 2412 3678 3821 8213 
1622 0 4426 8630 8423 4291 9328 6238 
5263 3521 0 9542 7281 9133 3128 3219
2821 3521 2152 0 2350 3912 3251 2419 
3632 2506 3012 2314 0 5322 3928 9542 
7221 3521 2152 9542 6727 0 9231 5294 
7523 6328 1923 3742 4281 3219 0 3912
7523 3911 1923 3742 4281 3219 6878 0
20558
0 4 3 7 2 6 5 1 0